# Formula: C-I-Br-F_radical

! UKS NORI TightSCF PBE0 aug-cc-PVTZ-J xyzfile opt NOPOP
%base "C-I-Br-F_radical_opt" 

* xyz 0 2
C	-0.089	0.210	0.406
I	1.808	-0.618	-0.102
Br	-1.455	-1.043	-0.117
F	-0.265	1.451	-0.187
*

$new_job
! UKS NORI PBE0 aug-cc-PVTZ-J NBO
%base "C-I-Br-F_radical_EPR"

*xyzfile 0 2

%EPRNMR
	GTENSOR		TRUE
	NUCLEI		= ALL C  {AISO, ADIP, AORB}
	NUCLEI		= ALL H  {AISO, ADIP, AORB}
	NUCLEI		= ALL F  {AISO, ADIP, AORB}
	NUCLEI		= ALL Cl {AISO, ADIP, AORB}
	NUCLEI		= ALL Br {AISO, ADIP, AORB}
	NUCLEI		= ALL I  {AISO, ADIP, AORB}
END

%NBO
	NBOKEYLIST = "$NBO NBO NPA AONBO=C PRINT=1 ARCHIVE $END"
END
