# Formula: C-I-I-I_radical

! UKS NORI TightSCF PBE0 aug-cc-PVTZ-J xyzfile opt NOPOP
%base "C-I-I-I_radical_opt" 

* xyz 0 2
C	-0.001	-0.028	0.531
I	-0.138	1.988	-0.171
I	-1.684	-1.107	-0.181
I	1.823	-0.853	-0.180
*

$new_job
! UKS NORI PBE0 aug-cc-PVTZ-J NBO
%base "C-I-I-I_radical_EPR"

*xyzfile 0 2

%EPRNMR
	GTENSOR		TRUE
	NUCLEI		= ALL C  {AISO, ADIP, AORB}
	NUCLEI		= ALL H  {AISO, ADIP, AORB}
	NUCLEI		= ALL F  {AISO, ADIP, AORB}
	NUCLEI		= ALL Cl {AISO, ADIP, AORB}
	NUCLEI		= ALL Br {AISO, ADIP, AORB}
	NUCLEI		= ALL I  {AISO, ADIP, AORB}
END

%NBO
	NBOKEYLIST = "$NBO NBO NPA AONBO=C PRINT=1 ARCHIVE $END"
END
