# Formula: C-I-I-Cl_radical

! UKS NORI TightSCF PBE0 aug-cc-PVTZ-J xyzfile opt NOPOP
%base "C-I-I-Cl_radical_opt" 

* xyz 0 2
C	0.001	0.104	0.530
I	1.754	-0.897	-0.163
I	-1.733	-0.933	-0.162
Cl	-0.022	1.726	-0.205
*

$new_job
! UKS NORI PBE0 aug-cc-PVTZ-J NBO
%base "C-I-I-Cl_radical_EPR"

*xyzfile 0 2

%EPRNMR
	GTENSOR		TRUE
	NUCLEI		= ALL C  {AISO, ADIP, AORB}
	NUCLEI		= ALL H  {AISO, ADIP, AORB}
	NUCLEI		= ALL F  {AISO, ADIP, AORB}
	NUCLEI		= ALL Cl {AISO, ADIP, AORB}
	NUCLEI		= ALL Br {AISO, ADIP, AORB}
	NUCLEI		= ALL I  {AISO, ADIP, AORB}
END

%NBO
	NBOKEYLIST = "$NBO NBO NPA AONBO=C PRINT=1 ARCHIVE $END"
END
