# Formula: C-I-Br-H_radical

! UKS NORI TightSCF PBE0 aug-cc-PVTZ-J xyzfile opt NOPOP
%base "C-I-Br-H_radical_opt" 

* xyz 0 2
C	-0.073	0.298	0.363
I	1.790	-0.621	-0.082
Br	-1.510	-0.921	-0.088
H	-0.207	1.244	-0.193
*

$new_job
! UKS NORI PBE0 aug-cc-PVTZ-J NBO
%base "C-I-Br-H_radical_EPR"

*xyzfile 0 2

%EPRNMR
	GTENSOR		TRUE
	NUCLEI		= ALL C  {AISO, ADIP, AORB}
	NUCLEI		= ALL H  {AISO, ADIP, AORB}
	NUCLEI		= ALL F  {AISO, ADIP, AORB}
	NUCLEI		= ALL Cl {AISO, ADIP, AORB}
	NUCLEI		= ALL Br {AISO, ADIP, AORB}
	NUCLEI		= ALL I  {AISO, ADIP, AORB}
END

%NBO
	NBOKEYLIST = "$NBO NBO NPA AONBO=C PRINT=1 ARCHIVE $END"
END
